%block LATTICE_CART
  6.7990052  -0.0456963   0.0023151
 -0.0456963   6.7990052  -0.0023151
  0.0019085  -0.0019085   8.2674881
%endblock LATTICE_CART

%block POSITIONS_ABS
  O  5.306396408  1.446912457  0.201709748 SPIN=0.500000
  O  1.487650809  5.265658056  0.345861404
  O  5.773419166  0.979889698  1.336645873 SPIN=0.500000
  O  0.884408447  5.868900418  1.531837667
  O  2.402825055  2.469636807  2.561549233
  O  4.283672058  4.350483809  2.561549233
  O  1.872520783  1.883676292  3.785810255
  O  4.869632572  4.880788081  3.785810255
  O  4.854372493  1.898936372  4.534462167
  O  1.804565762  4.948743102  4.341061926 SPIN=0.500000
  O  4.256259736  2.497049129  5.727178040
  O  2.252708852  4.500600013  5.491412234 SPIN=0.500000
  O  1.011729063  0.884719997  6.645861828
  O  5.868588867  5.741579802  6.645861828
  O  1.575379942  1.432540737  7.872281895
  O  5.320768127  5.177928922  7.872281895
  K  3.345241963  3.408066902  0.130373430
  K  3.280283239 -0.033104738  2.304615348
  K -0.012591603  3.518721967  2.302300245
  K -0.094068919  0.094068919  4.264124495
  K  3.511967791  0.070690544  6.431593239
  K -0.116386885  3.287037415  6.429278136
 Nb  0.108882457 -0.108882457 -0.118394100 SPIN=1.000000
 Nb  3.415177335  3.338131530  4.073011679 SPIN=1.000000
%endblock POSITIONS_ABS

SYMMETRY_GENERATE
SNAP_TO_SYMMETRY

KPOINTS_MP_GRID 6 6 6
SPECTRAL_KPOINTS_MP_GRID 6 6 6

%BLOCK SPECIES_POT
NCP
%ENDBLOCK SPECIES_POT

%BLOCK hubbard_u
ev
O     p: 2.0
Nb    d: 2.0
%ENDBLOCK hubbard_u

