%block LATTICE_CART
  7.1026811   0.0447720  -0.0090981
  0.0447720   7.1026811  -0.0090981
 -0.0094075  -0.0094075   8.4742222
%endblock LATTICE_CART

%block POSITIONS_ABS
  O  1.484280902  1.484280902  0.338602615
  O  5.594148877  5.594148877  0.179421476 SPIN=0.500000
  O  0.894061222  0.894061222  1.536452150
  O  6.050434777  6.050434777  1.323485377 SPIN=0.500000
  O  4.579956736  2.669215843  2.679752257
  O  2.669215843  4.579956736  2.679752257
  O  5.077130001  2.065956855  3.908682177
  O  2.065956855  5.077130001  3.908682177
  O  2.091251648  2.091251648  4.569921319
  O  5.127161204  5.127161204  4.536479346 SPIN=0.500000
  O  2.673785985  2.673785985  5.773171501
  O  4.654061314  4.654061314  5.667633086 SPIN=0.500000
  O  6.127591972  0.997495934  6.890397246
  O  0.997495934  6.127591972  6.890397246
  O  5.593562643  1.542344448  8.134288344
  O  1.542344448  5.593562643  8.134288344
 Rb  3.488249822  3.488249822  0.100245663
 Rb  3.430594938  0.132108927  2.284043861
 Rb  0.132108927  3.430594938  2.284043861
 Rb  0.099458785  0.099458785  4.345173468
 Rb  3.478868843  0.155495272  6.518739312
 Rb  0.155495272  3.478868843  6.518739312
 Nb  0.035898356  0.035898356 -0.093129228 SPIN=1.000000
 Nb  3.550119048  3.550119048  4.170495403 SPIN=1.000000
%endblock POSITIONS_ABS

SYMMETRY_GENERATE
SNAP_TO_SYMMETRY

KPOINTS_MP_GRID 6 6 6
SPECTRAL_KPOINTS_MP_GRID 6 6 6

%BLOCK SPECIES_POT
NCP
%ENDBLOCK SPECIES_POT

%BLOCK hubbard_u
ev
O     p: 2.0
Nb    d: 2.0
%ENDBLOCK hubbard_u
