%block LATTICE_CART
  6.7990052  -0.0456963   0.0023151
 -0.0456963   6.7990052  -0.0023151
  0.0019085  -0.0019085   8.2674881
%endblock LATTICE_CART

%block POSITIONS_ABS
  O  5.306396408  1.446912457  0.201709748 SPIN=0.500000
  O  1.487650809  5.265658056  0.345861404
  O  5.773419166  0.979889698  1.336645873 SPIN=0.500000
  O  0.884408447  5.868900418  1.531837667
  O  2.402825055  2.469636807  2.561549233
  O  4.283672058  4.350483809  2.561549233
  O  1.872520783  1.883676292  3.785810255
  O  4.869632572  4.880788081  3.785810255
  O  4.854372493  1.898936372  4.534462167
  O  1.804565762  4.948743102  4.341061926 SPIN=0.500000
  O  4.256259736  2.497049129  5.727178040
  O  2.252708852  4.500600013  5.491412234 SPIN=0.500000
  O  1.011729063  0.884719997  6.645861828
  O  5.868588867  5.741579802  6.645861828
  O  1.575379942  1.432540737  7.872281895
  O  5.320768127  5.177928922  7.872281895
  K  3.345241963  3.408066902  0.130373430
  K  3.280283239 -0.033104738  2.304615348
  K -0.012591603  3.518721967  2.302300245
  K -0.094068919  0.094068919  4.264124495
  K  3.511967791  0.070690544  6.431593239
  K -0.116386885  3.287037415  6.429278136
 Nb  0.108882457 -0.108882457 -0.118394100 SPIN=1.000000
 Nb  3.415177335  3.338131530  4.073011679 SPIN=1.000000
%endblock POSITIONS_ABS

SYMMETRY_GENERATE
SNAP_TO_SYMMETRY

KPOINTS_MP_GRID 6 6 6

%BLOCK SPECIES_POT
NCP
%ENDBLOCK SPECIES_POT

%BLOCK hubbard_u
ev
O     p: 2.0
Nb    d: 2.0
%ENDBLOCK hubbard_u

%block spectral_kpoint_list
0.0 0.0 0.0                    ! \Gamma
0.012499999999999999 0.0125 -6.028790885623872e-23
0.024999999999999998 0.025 -1.2057581771247744e-22
0.03749999999999999 0.0375 -2.941773790009832e-22
0.049999999999999996 0.05 -2.411516354249549e-22
0.062499999999999986 0.0625 -1.4685880247643497e-21
0.07499999999999998 0.075 -5.883547580019664e-22
0.08749999999999998 0.0875 -3.9234608034431394e-21
0.09999999999999999 0.1 -4.823032708499098e-22
0.11249999999999998 0.11250000000000002 -4.2927752727388145e-22
0.12499999999999997 0.125 -2.9371760495286995e-21
0.13749999999999998 0.13750000000000004 -3.232260401218248e-22
0.14999999999999997 0.15 -1.1767095160039328e-21
0.16249999999999998 0.1625 1.4372404934029419e-21
0.17499999999999996 0.175 -7.846921606886279e-21
0.18749999999999994 0.1875 3.1977070269277085e-21
0.19999999999999998 0.2 -9.646065416998195e-22
0.21249999999999997 0.2125 -3.4725050639546376e-21
0.22499999999999995 0.22500000000000003 -8.585550545477629e-22
0.23749999999999993 0.2375 -8.488302108464274e-21
0.24999999999999994 0.25 -5.874352099057399e-21
0.26249999999999996 0.2625 -3.2604020896505243e-21
0.27499999999999997 0.2750000000000001 -6.464520802436496e-22
0.2874999999999999 0.2875 1.544794902469524e-22
0.29999999999999993 0.3 -2.3534190320078656e-21
0.31249999999999994 0.31250000000000006 5.382379509060702e-21
0.32499999999999996 0.325 2.8744809868058837e-21
0.33749999999999997 0.3375 3.665824645510657e-22
0.3499999999999999 0.35 -1.5693843213772558e-20
0.36249999999999993 0.3625 -4.64921457995857e-21
0.3749999999999999 0.375 6.395414053855417e-21
0.38749999999999996 0.3875 -1.2973841717213626e-20
0.39999999999999997 0.4 -1.929213083399639e-21
0.41249999999999987 0.41250000000000003 -1.7989638761723263e-20
0.42499999999999993 0.425 -6.945010127909275e-21
0.4374999999999999 0.4375 -9.452908650164093e-21
0.4499999999999999 0.45000000000000007 -1.7171101090955258e-21
0.46249999999999997 0.4625 -4.225008631350344e-21
0.47499999999999987 0.475 -1.6976604216928547e-20
0.4874999999999999 0.48750000000000004 -9.24080567585998e-21
0.4999999999999999 0.5 -1.1748704198114798e-20 ! Y
0.49999999999999994 0.48214285714285715 -1.1476537768714222e-20
0.49999999999999994 0.46428571428571425 -1.109461427586824e-20
0.4999999999999999 0.44642857142857145 -2.6538813952164978e-20
0.49999999999999983 0.4285714285714286 -1.8604378176332728e-21
0.4999999999999999 0.41071428571428575 -3.128055758108549e-21
0.4999999999999999 0.39285714285714285 1.1324807199452641e-21
0.49999999999999994 0.375 -1.3513722053001197e-22
0.4999999999999999 0.3571428571428572 -1.727340279133535e-20
0.49999999999999994 0.33928571428571425 -9.446636679514967e-21
0.49999999999999994 0.3214285714285714 7.296415639851708e-21
0.5 0.30357142857142855 -1.4478090879476146e-20
0.49999999999999994 0.2857142857142857 1.5817488595959334e-20
0.4999999999999999 0.26785714285714285 1.0091727551710912e-20
0.4999999999999999 0.25 -2.7027444106002394e-22
0.49999999999999994 0.23214285714285715 -1.063227643383096e-20
0.4999999999999999 0.2142857142857143 -7.441751270533091e-21
0.49999999999999994 0.19642857142857142 -4.251226107235222e-21
0.49999999999999994 0.17857142857142855 -1.8893273359029934e-20
0.5 0.16071428571428567 1.1402306116405546e-20
0.49999999999999994 0.14285714285714282 1.4592831279703415e-20
0.5 0.125 8.510874545956254e-21
0.4999999999999999 0.10714285714285712 1.1701399709254124e-20
0.49999999999999994 0.08928571428571426 1.4891924872551993e-20
0.4999999999999999 0.07142857142857145 4.5299228797810564e-21
0.5 0.05357142857142852 1.6992929940123956e-20
0.49999999999999994 0.03571428571428565 -6.921599208715786e-21
0.5 0.017857142857142842 2.3373980266719694e-20
0.49999999999999994 4.497316869094695e-19 -5.405488821200479e-22 ! V
0.48214285714285704 4.712348326204039e-19 -3.731074045417917e-21
0.46428571428571425 5.283398318956207e-19 -6.921599208715786e-21
0.4464285714285714 1.1616210861235345e-19 -1.0112124372013655e-20
0.4285714285714285 1.3766525432328793e-19 2.4987762075728106e-22
0.41071428571428564 1.5916340647536887e-19 1.3393977164831873e-21
0.39285714285714274 1.8067154574515689e-19 -1.9683699861907263e-20
0.37499999999999994 2.377748601839704e-19 8.510874545956254e-21
0.3571428571428571 2.5928299945375837e-19 -1.2512223032434195e-20
0.3392857142857142 2.8078115160583933e-19 1.5682351375429322e-20
0.32142857142857145 3.3788945960350634e-19 1.2491826212131453e-20
0.30357142857142855 3.593926053144408e-19 9.301301048833583e-21
0.28571428571428564 1.6405781330770117e-19 -2.805510322010576e-21
0.2678571428571428 1.855584622392089e-19 2.920250722237845e-21
0.24999999999999997 2.2486584345473474e-19 -2.7027444106002394e-22
0.23214285714285712 2.6416991594781037e-19 -3.460799604357893e-21
0.21428571428571425 6.883262716164396e-20 1.2493881037864053e-22
0.19642857142857145 -1.087037348423813e-19 1.0486940803149577e-20
0.17857142857142852 1.118355793858845e-19 4.80019732084108e-21
0.16071428571428567 6.026231020165281e-19 -5.1665914204911915e-21
0.14285714285714282 8.202516148471044e-20 1.1971674150314148e-20
0.12499999999999996 1.0353330075449844e-19 -1.5827687006110705e-20
0.10714285714285715 5.22197371423899e-20 -2.0775532243225674e-21
0.08928571428571429 7.372371003393694e-20 -5.2680783876204365e-21
0.07142857142857141 4.101757430120875e-20 -1.1846735339935507e-20
0.05357142857142855 8.30644500962703e-21 1.101246017350604e-21
0.03571428571428568 -2.440051790371371e-20 -5.4774109349644665e-21
0.01785714285714287 3.2706549323034466e-20 5.73162400506077e-21
0.0 0.0 0.0                    ! \Gamma
-2.5201345091809787e-22 2.5201345091809787e-22 0.021739130434782608
-5.040269018361957e-22 5.040269018361957e-22 0.043478260869565216
1.7850584890086074e-21 -1.7850584890086074e-21 0.06521739130434782
-1.0080538036723915e-21 1.0080538036723915e-21 0.08695652173913043
-6.357868229359011e-21 2.9697364403418096e-21 0.10869565217391303
3.570116978017215e-21 -3.570116978017215e-21 0.13043478260869565
-3.442556759692566e-21 3.442556759692566e-21 0.15217391304347827
-2.016107607344783e-21 2.016107607344783e-21 0.17391304347826086
-3.915377079043323e-21 3.915377079043323e-21 0.1956521739130435
-1.2715736458718022e-20 5.939472880683619e-21 0.21739130434782605
-1.461500593041656e-20 1.461500593041656e-20 0.2391304347826087
7.14023395603443e-21 -7.14023395603443e-21 0.2608695652173913
1.79041953034781e-21 -1.79041953034781e-21 0.2826086956521739
-6.885113519385132e-21 6.885113519385132e-21 0.30434782608695654
1.3175992109970536e-21 -1.3175992109970536e-21 0.32608695652173914
-4.032215214689566e-21 4.032215214689566e-21 0.34782608695652173
-9.382029640376185e-21 9.382029640376185e-21 0.3695652173913043
-7.830754158086645e-21 7.830754158086645e-21 0.391304347826087
3.7195857229554047e-22 -3.7195857229554047e-22 0.4130434782608696
-2.5431472917436044e-20 1.1878945761367239e-20 0.4347826086956521
-4.433381449919147e-20 1.7228760187053858e-20 0.4565217391304347
-2.923001186083312e-20 2.923001186083312e-20 0.4782608695652174
-7.474771974382132e-21 7.474771974382132e-21 0.5 ! A
0.012499999999999997 0.012500000000000002 0.5
0.024999999999999998 0.025 0.5
0.03749999999999999 0.0375 0.5
0.049999999999999996 0.05 0.5
0.06249999999999998 0.0625 0.5
0.07499999999999998 0.075 0.5
0.08749999999999997 0.0875 0.5
0.09999999999999999 0.1 0.5
0.11249999999999999 0.11250000000000002 0.5
0.12499999999999999 0.125 0.5
0.1375 0.1375 0.5
0.14999999999999997 0.14999999999999997 0.5
0.1625 0.1625 0.5
0.17499999999999996 0.175 0.5
0.18749999999999997 0.18749999999999997 0.5
0.2 0.2 0.5
0.21249999999999997 0.2125 0.5
0.22499999999999998 0.225 0.5
0.23749999999999996 0.23749999999999996 0.5
0.24999999999999994 0.25 0.5
0.26249999999999996 0.2625 0.5
0.27499999999999997 0.2750000000000001 0.5
0.2874999999999999 0.2875 0.5
0.29999999999999993 0.3 0.5
0.31249999999999994 0.31250000000000006 0.5
0.32499999999999996 0.325 0.5
0.33749999999999997 0.3375 0.5
0.34999999999999987 0.35000000000000003 0.5
0.36249999999999993 0.3625 0.5
0.37499999999999994 0.375 0.5
0.3874999999999999 0.38750000000000007 0.5
0.39999999999999997 0.4 0.5
0.4124999999999999 0.41250000000000003 0.5
0.4249999999999999 0.42500000000000004 0.5
0.43749999999999983 0.4375 0.5
0.44999999999999996 0.45000000000000007 0.5
0.4624999999999999 0.4625000000000001 0.5
0.4749999999999998 0.475 0.5
0.48749999999999993 0.48750000000000004 0.5
0.49999999999999994 0.5 0.5    ! M
0.4999999999999999 0.4821428571428572 0.49999999999999994
0.49999999999999994 0.4642857142857143 0.5
0.4999999999999999 0.44642857142857145 0.5
0.49999999999999994 0.4285714285714286 0.5
0.4999999999999999 0.41071428571428575 0.5
0.49999999999999994 0.3928571428571429 0.49999999999999994
0.4999999999999999 0.375 0.5
0.49999999999999994 0.3571428571428572 0.5
0.4999999999999999 0.3392857142857143 0.5
0.49999999999999994 0.3214285714285715 0.5
0.49999999999999994 0.3035714285714286 0.49999999999999994
0.49999999999999994 0.28571428571428575 0.5
0.4999999999999999 0.26785714285714285 0.5
0.4999999999999999 0.25 0.49999999999999994
0.49999999999999994 0.23214285714285718 0.5
0.4999999999999999 0.2142857142857143 0.49999999999999994
0.4999999999999999 0.19642857142857142 0.5
0.4999999999999999 0.17857142857142858 0.5
0.49999999999999994 0.1607142857142857 0.49999999999999994
0.4999999999999999 0.14285714285714285 0.5
0.4999999999999999 0.125 0.49999999999999994
0.4999999999999999 0.10714285714285715 0.5
0.49999999999999994 0.08928571428571429 0.49999999999999994
0.4999999999999999 0.07142857142857147 0.49999999999999994
0.49999999999999994 0.05357142857142854 0.5
0.4999999999999999 0.03571428571428567 0.49999999999999994
0.49999999999999994 0.01785714285714286 0.5
0.4999999999999999 2.5793480960394683e-19 0.49999999999999994 ! L
0.4999999999999999 2.796900494903978e-19 0.47826086956521735
0.4999999999999999 7.622312126831882e-19 0.45652173913043476
0.4999999999999999 3.367530564193686e-19 0.43478260869565216
0.4999999999999999 3.449557691497508e-19 0.41304347826086957
0.49999999999999994 3.938160633483394e-19 0.391304347826087
0.4999999999999999 4.224723931427665e-19 0.3695652173913043
0.4999999999999999 4.3067510587314874e-19 0.34782608695652173
0.49999999999999994 4.795354000717373e-19 0.3260869565217391
0.49999999999999994 7.783657949600903e-20 0.3043478260869565
0.49999999999999983 5.094933526885705e-19 0.2826086956521739
0.49999999999999994 5.685804554191816e-19 0.2608695652173913
0.49999999999999994 1.43102299155362e-19 0.23913043478260868
0.49999999999999994 6.256434623481524e-19 0.21739130434782608
0.49999999999999994 6.508492471885915e-19 0.19565217391304343
0.4999999999999999 2.321473545028063e-19 0.17391304347826084
0.49999999999999994 2.8100764870139487e-19 0.15217391304347824
0.4999999999999999 2.8921036143177704e-19 0.13043478260869565
0.49999999999999994 3.2464295480423863e-19 0.10869565217391297
0.4999999999999999 3.7011511721381e-19 0.08695652173913038
0.49999999999999994 3.6464047645818163e-19 0.06521739130434784
0.49999999999999994 -5.744954801662076e-20 0.043478260869565244
0.49999999999999994 4.43851166345706e-19 0.021739130434782573
0.49999999999999994 4.497316869094695e-19 -5.405488821200479e-22 ! V
%endblock spectral_kpoint_list
