%block LATTICE_CART
  7.4387047   0.0000000   0.0000000
  0.0000000   7.4387047   0.0000000
  0.0000000   0.0000000   8.5697539
%endblock LATTICE_CART

%block POSITIONS_ABS
  O  1.444386377  1.444386377  0.142719147
  O  5.994318363  5.994318363  0.142719147
  O  0.964822639  0.964822639  1.462737233
  O  6.473882101  6.473882101  1.462737233
  O  4.684175010  2.754529731  2.822139678
  O  2.754529731  4.684175010  2.822139678
  O  5.163738747  2.274965993  4.142157764
  O  2.274965993  5.163738747  4.142157764
  O  2.274965993  2.274965993  4.427596057
  O  5.163738747  5.163738747  4.427596057
  O  2.754529731  2.754529731  5.747614143
  O  4.684175010  4.684175010  5.747614143
  O  6.473882101  0.964822639  7.107016588
  O  0.964822639  6.473882101  7.107016588
  O  5.994318363  1.444386377  8.427034674
  O  1.444386377  5.994318363  8.427034674
 Nb -0.000000000 -0.000000000  0.000000000
 Nb  3.719352370  3.719352370  4.284876910
 Cs  3.719352370  3.719352370  0.000000000
 Cs  3.719352370 -0.000000000  2.142438455
 Cs  0.000000000  3.719352370  2.142438455
 Cs -0.000000000  0.000000000  4.284876910
 Cs  3.719352370 -0.000000000  6.427315365
 Cs -0.000000000  3.719352370  6.427315365
%endblock POSITIONS_ABS

SYMMETRY_GENERATE
SNAP_TO_SYMMETRY

KPOINTS_MP_GRID 6 6 6
SPECTRAL_KPOINTS_MP_GRID 6 6 6

%BLOCK SPECIES_POT
NCP
%ENDBLOCK SPECIES_POT

%BLOCK hubbard_u
ev
O     p: 2.0
Nb    d: 2.0
%ENDBLOCK hubbard_u
