%block LATTICE_CART
  7.4282981  -0.0300515  -0.0481884
 -0.0300515   7.4282981  -0.0481884
 -0.0553578  -0.0553578   8.8237683
%endblock LATTICE_CART

%block POSITIONS_ABS
  O  1.496560308  1.496560308  0.172011104 SPIN=0.500000
  O  5.851453402  5.851453402  0.293215422
  O  1.042055759  1.042055759  1.316808903 SPIN=0.500000
  O  6.465851973  6.465851973  1.469010144
  O  4.627755524  2.719538847  2.838638147
  O  2.719538847  4.627755524  2.838638147
  O  5.208177708  2.192599546  4.066569570
  O  2.192599546  5.208177708  4.066569570
  O  2.227332243  2.227332243  4.799703074
  O  5.275407478  5.275407478  4.590498814 SPIN=0.500000
  O  2.830249212  2.830249212  5.988105624
  O  4.824763051  4.824763051  5.737383249 SPIN=0.500000
  O  6.328686312  0.781573073  7.188212072
  O  0.781573073  6.328686312  7.188212072
  O  5.804518001  1.350020182  8.422958402
  O  1.350020182  5.804518001  8.422958402
 Nb -0.117704774 -0.117704774 -0.101305102 SPIN=1.000000
 Nb  3.659626702  3.659626702  4.327472703 SPIN=1.000000
 Cs  3.753643243  3.753643243  0.059254638
 Cs  3.811640134 -0.078060632  2.318066506
 Cs -0.078060632  3.811640134  2.318066506
 Cs  0.073170757  0.073170757  4.491351488
 Cs  3.528048637  0.045278476  6.716466046
 Cs  0.045278476  3.528048637  6.716466046
%endblock POSITIONS_ABS

SYMMETRY_GENERATE
SNAP_TO_SYMMETRY

KPOINTS_MP_GRID 6 6 6
SPECTRAL_KPOINTS_MP_GRID 6 6 6

%BLOCK SPECIES_POT
NCP
%ENDBLOCK SPECIES_POT

%BLOCK hubbard_u
ev
O     p: 2.0
Nb    d: 2.0
%ENDBLOCK hubbard_u

