%block LATTICE_CART
  6.7646719   0.0000000  -0.0000000
  0.0000000   6.7646719   0.0000000
 -0.0000000   0.0000000   8.0579571
%endblock LATTICE_CART

%block POSITIONS_ABS
  O  5.318139950  1.446531940  0.187337199
  O  1.446531940  5.318139950  0.187337199
  O  5.823530599  0.941141291  1.487301180
  O  0.941141291  5.823530599  1.487301180
  O  2.441194654  2.441194654  2.541677372
  O  4.323477236  4.323477236  2.541677372
  O  1.935804005  1.935804005  3.841641353
  O  4.828867885  4.828867885  3.841641353
  O  4.828867885  1.935804005  4.216315751
  O  1.935804005  4.828867885  4.216315751
  O  4.323477236  2.441194654  5.516279732
  O  2.441194654  4.323477236  5.516279732
  O  0.941141291  0.941141291  6.570655924
  O  5.823530599  5.823530599  6.570655924
  O  1.446531940  1.446531940  7.870619905
  O  5.318139950  5.318139950  7.870619905
  K  3.382335945  3.382335945 -0.000000000
  K  3.382335945  0.000000000  2.014489275
  K  0.000000000  3.382335945  2.014489275
  K  0.000000000 -0.000000000  4.028978552
  K  3.382335945  0.000000000  6.043467827
  K -0.000000000  3.382335945  6.043467827
 Nb  0.000000000  0.000000000 -0.000000000
 Nb  3.382335945  3.382335945  4.028978552
%endblock POSITIONS_ABS

SYMMETRY_GENERATE
SNAP_TO_SYMMETRY

KPOINTS_MP_GRID 6 6 6
KPOINTS_MP_OFFSET 0.0000000 0.000000 0.000000

%BLOCK SPECIES_POT
NCP
%ENDBLOCK SPECIES_POT

%BLOCK hubbard_u
ev
O     p: 2.0
Nb    d: 2.0
%ENDBLOCK hubbard_u
