%block LATTICE_CART
  7.0643537   0.0000000  -0.0000000
  0.0000000   7.0643537   0.0000000
 -0.0000000   0.0000000   8.1498420
%endblock LATTICE_CART

%block POSITIONS_ABS
  O  1.447379387  1.447379387  0.159952529
  O  5.616974247  5.616974247  0.159952529
  O  0.959713689  0.959713689  1.474538175
  O  6.104639945  6.104639945  1.474538175
  O  4.491890506  2.572463128  2.600382812
  O  2.572463128  4.491890506  2.600382812
  O  4.979556204  2.084797430  3.914968459
  O  2.084797430  4.979556204  3.914968459
  O  2.084797430  2.084797430  4.234873516
  O  4.979556204  4.979556204  4.234873516
  O  2.572463128  2.572463128  5.549459162
  O  4.491890506  4.491890506  5.549459162
  O  6.104639945  0.959713689  6.675303799
  O  0.959713689  6.104639945  6.675303799
  O  5.616974247  1.447379387  7.989889446
  O  1.447379387  5.616974247  7.989889446
 Rb  3.532176817  3.532176817 -0.000000000
 Rb  3.532176817  0.000000000  2.037460494
 Rb -0.000000000  3.532176817  2.037460494
 Rb -0.000000000 -0.000000000  4.074920987
 Rb  3.532176817 -0.000000000  6.112381481
 Rb  0.000000000  3.532176817  6.112381481
 Nb -0.000000000  0.000000000  0.000000000
 Nb  3.532176817  3.532176817  4.074920987
%endblock POSITIONS_ABS

SYMMETRY_GENERATE
SNAP_TO_SYMMETRY

KPOINTS_MP_GRID 6 6 6
KPOINTS_MP_OFFSET 0.0000000 0.000000 0.000000

%BLOCK SPECIES_POT
NCP
%ENDBLOCK SPECIES_POT

%BLOCK hubbard_u
ev
O     p: 2.0
Nb    d: 2.0
%ENDBLOCK hubbard_u
