%block LATTICE_CART
  7.0643537   0.0000000  -0.0000000
  0.0000000   7.0643537   0.0000000
 -0.0000000   0.0000000   8.1498420
%endblock LATTICE_CART

%block POSITIONS_ABS
  O  1.447379387  1.447379387  0.159952529
  O  5.616974247  5.616974247  0.159952529
  O  0.959713689  0.959713689  1.474538175
  O  6.104639945  6.104639945  1.474538175
  O  4.491890506  2.572463128  2.600382812
  O  2.572463128  4.491890506  2.600382812
  O  4.979556204  2.084797430  3.914968459
  O  2.084797430  4.979556204  3.914968459
  O  2.084797430  2.084797430  4.234873516
  O  4.979556204  4.979556204  4.234873516
  O  2.572463128  2.572463128  5.549459162
  O  4.491890506  4.491890506  5.549459162
  O  6.104639945  0.959713689  6.675303799
  O  0.959713689  6.104639945  6.675303799
  O  5.616974247  1.447379387  7.989889446
  O  1.447379387  5.616974247  7.989889446
 Rb  3.532176817  3.532176817 -0.000000000
 Rb  3.532176817  0.000000000  2.037460494
 Rb -0.000000000  3.532176817  2.037460494
 Rb -0.000000000 -0.000000000  4.074920987
 Rb  3.532176817 -0.000000000  6.112381481
 Rb  0.000000000  3.532176817  6.112381481
 Nb -0.000000000  0.000000000  0.000000000
 Nb  3.532176817  3.532176817  4.074920987
%endblock POSITIONS_ABS

SYMMETRY_GENERATE
SNAP_TO_SYMMETRY

KPOINTS_MP_GRID 6 6 6

%BLOCK SPECIES_POT
NCP
%ENDBLOCK SPECIES_POT

%BLOCK hubbard_u
ev
O     p: 2.0
Nb    d: 2.0
%ENDBLOCK hubbard_u

%block spectral_kpoint_list
0.0 0.0 0.0                    ! \Gamma
0.0 0.0 0.022727272727272728
0.0 0.0 0.045454545454545456
0.0 0.0 0.06818181818181818
0.0 0.0 0.09090909090909091
0.0 0.0 0.11363636363636363
0.0 0.0 0.13636363636363635
0.0 0.0 0.1590909090909091
0.0 0.0 0.18181818181818182
0.0 0.0 0.20454545454545456
0.0 0.0 0.22727272727272727
0.0 0.0 0.25
0.0 0.0 0.2727272727272727
0.0 0.0 0.29545454545454547
0.0 0.0 0.3181818181818182
0.0 0.0 0.3409090909090909
0.0 0.0 0.36363636363636365
0.0 0.0 0.38636363636363635
0.0 0.0 0.4090909090909091
0.0 0.0 0.4318181818181818
0.0 0.0 0.45454545454545453
0.0 0.0 0.47727272727272724
0.0 0.0 0.5                    ! X
0.011363636363636364 0.011363636363636364 0.48863636363636365
0.022727272727272728 0.022727272727272728 0.47727272727272724
0.03409090909090909 0.03409090909090909 0.4659090909090909
0.045454545454545456 0.045454545454545456 0.45454545454545453
0.05681818181818182 0.05681818181818182 0.4431818181818182
0.06818181818181818 0.06818181818181818 0.4318181818181818
0.07954545454545454 0.07954545454545454 0.42045454545454547
0.09090909090909091 0.09090909090909091 0.4090909090909091
0.10227272727272728 0.10227272727272728 0.3977272727272727
0.11363636363636365 0.11363636363636365 0.38636363636363635
0.125 0.125 0.375
0.13636363636363635 0.13636363636363635 0.36363636363636365
0.14772727272727273 0.14772727272727273 0.3522727272727272
0.1590909090909091 0.1590909090909091 0.34090909090909094
0.17045454545454544 0.17045454545454544 0.3295454545454546
0.18181818181818182 0.18181818181818182 0.3181818181818182
0.19318181818181818 0.19318181818181818 0.3068181818181818
0.20454545454545456 0.20454545454545456 0.2954545454545454
0.21590909090909094 0.21590909090909094 0.28409090909090906
0.2272727272727273 0.2272727272727273 0.2727272727272727
0.23863636363636367 0.23863636363636367 0.26136363636363635
0.25 0.25 0.25                 ! P
0.23863636363636362 0.2613636363636364 0.23863636363636362
0.2272727272727273 0.27272727272727276 0.22727272727272727
0.21590909090909094 0.28409090909090906 0.2159090909090909
0.20454545454545456 0.29545454545454547 0.20454545454545456
0.19318181818181818 0.3068181818181818 0.19318181818181818
0.18181818181818182 0.3181818181818182 0.18181818181818182
0.17045454545454547 0.32954545454545453 0.17045454545454547
0.1590909090909091 0.34090909090909094 0.1590909090909091
0.14772727272727273 0.3522727272727273 0.1477272727272727
0.13636363636363638 0.36363636363636365 0.13636363636363635
0.125 0.375 0.125
0.11363636363636366 0.38636363636363635 0.11363636363636363
0.10227272727272728 0.39772727272727276 0.10227272727272725
0.09090909090909091 0.4090909090909091 0.09090909090909091
0.07954545454545457 0.42045454545454547 0.07954545454545454
0.06818181818181819 0.4318181818181819 0.06818181818181816
0.05681818181818184 0.4431818181818182 0.05681818181818181
0.045454545454545456 0.4545454545454546 0.04545454545454545
0.034090909090909075 0.465909090909091 0.03409090909090908
0.022727272727272728 0.47727272727272724 0.022727272727272724
0.011363636363636348 0.48863636363636365 0.011363636363636362
0.0 0.5 0.0                    ! N
0.0 0.4807692307692308 0.0
0.0 0.46153846153846156 0.0
0.0 0.4423076923076923 0.0
0.0 0.42307692307692313 0.0
0.0 0.4038461538461538 0.0
0.0 0.38461538461538464 0.0
0.0 0.3653846153846154 0.0
0.0 0.3461538461538462 0.0
0.0 0.3269230769230769 0.0
0.0 0.3076923076923077 0.0
0.0 0.2884615384615385 0.0
0.0 0.2692307692307692 0.0
0.0 0.25 0.0
0.0 0.2307692307692308 0.0
0.0 0.21153846153846156 0.0
0.0 0.19230769230769232 0.0
0.0 0.1730769230769231 0.0
0.0 0.15384615384615385 0.0
0.0 0.13461538461538466 0.0
0.0 0.11538461538461536 0.0
0.0 0.09615384615384613 0.0
0.0 0.07692307692307696 0.0
0.0 0.057692307692307716 0.0
0.0 0.038461538461538415 0.0
0.0 0.01923076923076924 0.0
0.0 0.0 0.0                    ! \Gamma
0.011627906976744188 0.011627906976744188 -0.011627906976744186
0.023255813953488375 0.023255813953488375 -0.023255813953488372
0.03488372093023256 0.03488372093023256 -0.03488372093023256
0.04651162790697675 0.04651162790697675 -0.046511627906976744
0.05813953488372093 0.05813953488372093 -0.05813953488372093
0.06976744186046512 0.06976744186046512 -0.06976744186046512
0.08139534883720932 0.08139534883720932 -0.08139534883720931
0.0930232558139535 0.0930232558139535 -0.09302325581395349
0.1046511627906977 0.1046511627906977 -0.10465116279069768
0.11627906976744186 0.11627906976744186 -0.11627906976744186
0.12790697674418605 0.12790697674418605 -0.12790697674418605
0.13953488372093023 0.13953488372093023 -0.13953488372093023
0.15116279069767444 0.15116279069767444 -0.1511627906976744
0.16279069767441864 0.16279069767441864 -0.16279069767441862
0.17441860465116282 0.17441860465116282 -0.1744186046511628
0.186046511627907 0.186046511627907 -0.18604651162790697
0.19767441860465115 0.19767441860465115 -0.19767441860465115
0.2093023255813954 0.2093023255813954 -0.20930232558139536
0.22093023255813957 0.22093023255813957 -0.22093023255813954
0.23255813953488372 0.23255813953488372 -0.23255813953488372
0.2441860465116279 0.2441860465116279 -0.2441860465116279
0.2558139534883721 0.2558139534883721 -0.2558139534883721
0.26744186046511625 0.26744186046511625 -0.26744186046511625
0.27906976744186046 0.27906976744186046 -0.27906976744186046
0.29069767441860467 0.29069767441860467 -0.29069767441860467
0.3023255813953489 0.3023255813953489 -0.3023255813953488
0.3139534883720931 0.3139534883720931 -0.313953488372093
0.3255813953488373 0.3255813953488373 -0.32558139534883723
0.33720930232558144 0.33720930232558144 -0.3372093023255814
0.34883720930232565 0.34883720930232565 -0.3488372093023256
0.3604651162790698 0.3604651162790698 -0.3604651162790697
0.372093023255814 0.372093023255814 -0.37209302325581395
0.3837209302325582 0.3837209302325582 -0.38372093023255816
0.3953488372093023 0.3953488372093023 -0.3953488372093023
0.40697674418604657 0.40697674418604657 -0.4069767441860465
0.4186046511627908 0.4186046511627908 -0.4186046511627907
0.43023255813953487 0.43023255813953487 -0.43023255813953487
0.44186046511627913 0.44186046511627913 -0.4418604651162791
0.45348837209302323 0.45348837209302323 -0.45348837209302323
0.46511627906976744 0.46511627906976744 -0.46511627906976744
0.47674418604651164 0.47674418604651164 -0.47674418604651164
0.4883720930232558 0.4883720930232558 -0.4883720930232558
0.5 0.5 -0.5                   ! Z
%endblock spectral_kpoint_list
